3
20
3862
[[326,354,376,349,400,450,125,828,206,200,584,531,316,828,985,908,575,802,512,179],
 [816, 49, 90,475,283,566,703,383,423,173,364,552,921,642,189,274,432,465,173,778],
 [579,455,252,610,520,219,942,877,192,175,747,521,770, 74,690,731,420,495,201,283]]
[ 63,451,632,200,785,315,162,239, 87,552,161,478,177,313,815,786,886,257,272, 93]